networks/zoo_82_1640/zoo_82_1640.txt
Number of groups: 60.999999999625004
Flow 4: {1 8} {8 5} {5 46} 
Flow 6: {1 7} {7 48} 
Flow 42: {2 33} {33 3} 
Flow 43: {2 4} 
Flow 81: {3 25} {25 8} {8 1} 
Flow 103: {22 24} 
Flow 112: {3 33} {33 74} 
Flow 122: {4 2} {2 43} 
Flow 140: {33 25} {25 21} {21 62} 
Flow 157: {4 33} {33 38} {38 79} 
Flow 168: {5 9} 
Flow 183: {5 8} {8 30} {30 24} {24 65} 
Flow 239: {6 22} {22 40} {40 81} 
Flow 241: {7 1} {1 42} 
Flow 265: {7 8} {8 26} {26 67} 
Flow 325: {9 5} 
Flow 346: {10 27} 
Flow 351: {9 8} {8 25} {25 32} {32 73} 
Flow 411: {11 22} {22 12} {12 53} 
Flow 446: {12 22} {22 6} {6 47} 
Flow 484: {13 29} {29 25} {25 33} {33 4} {4 45} 
Flow 487: {8 7} 
Flow 531: {14 22} {22 11} {11 52} 
Flow 547: {13 28} {28 69} 
Flow 568: {30 8} {8 49} 
Flow 576: {15 16} {16 17} {17 58} 
Flow 656: {17 16} {16 57} 
Flow 702: {18 16} {16 22} {22 23} {23 64} 
Flow 707: {29 28} 
Flow 733: {19 22} {22 14} {14 13} {13 54} 
Flow 794: {20 22} {22 35} {35 76} 
Flow 829: {21 29} {29 30} {30 71} 
Flow 835: {21 25} {25 22} {22 38} {38 36} {36 77} 
Flow 904: {23 22} {22 25} {25 66} 
Flow 906: {16 30} {30 27} {27 68} 
Flow 945: {25 26} 
Flow 950: {24 30} {30 31} {31 72} 
Flow 960: {24 22} {22 41} {41 82} 
Flow 1010: {26 8} {8 10} {10 51} 
Flow 1013: {26 25} {25 29} {29 13} 
Flow 1049: {27 10} {10 8} {8 9} {9 50} 
Flow 1058: {27 30} {30 16} {16 18} {18 59} 
Flow 1094: {28 13} {13 14} {14 55} 
Flow 1100: {28 29} {29 22} {22 20} {20 61} 
Flow 1221: {31 30} {30 29} {29 21} 
Flow 1243: {32 25} {25 3} {3 44} 
Flow 1269: {32 22} {22 29} {29 70} 
Flow 1322: {34 38} {38 33} {33 2} 
Flow 1358: {34 39} 
Flow 1375: {35 22} {22 16} {16 15} {15 56} 
Flow 1434: {36 38} {38 34} {34 75} 
Flow 1436: {36 37} 
Flow 1476: {37 36} 
Flow 1478: {37 38} {38 39} {39 80} 
Flow 1542: {38 22} {22 63} 
Flow 1554: {39 34} 
Flow 1557: {39 38} {38 37} {37 78} 
Flow 1579: {40 22} {22 19} {19 60} 
Flow 1600: {40 41} 
Flow 1632: {41 22} {22 32} 
Flow 1640: {41 40} 
Time taken running everything: 105 seconds
