networks/zoo_82_1640/standard/zoo_82_1640.sol
<?xml version = "1.0" encoding="UTF-8" standalone="yes"?>
<CPLEXSolution version="1.2">
 <header
   problemName="networks/zoo_82_1640/zoo_82_1640.lp"
   solutionName="incumbent"
   solutionIndex="-1"
   objectiveValue="60.999999999625004"
   solutionTypeValue="3"
   solutionTypeString="primal"
   solutionStatusValue="101"
   solutionStatusString="integer optimal solution"
   solutionMethodString="mip"
   primalFeasible="1"
   dualFeasible="1"
   MIPNodes="0"
   MIPIterations="78550"
   writeLevel="3"/>
 <quality
   epInt="1.0000000000000001e-05"
   epRHS="9.9999999999999995e-07"
   maxIntInfeas="2.000000165480742e-09"
   maxPrimalInfeas="1.2000000992884452e-08"
   maxX="4.0000000000005596"
   maxSlack="10.00000000000056"/>
 <variables>
  <variable name="Y(4,5)" index="250" value="1"/>
  <variable name="Y(6,7)" index="416" value="1"/>
  <variable name="Y(23,24)" index="1827" value="8.3332923572079506e-11"/>
  <variable name="Y(42,33)" index="3394" value="1"/>
  <variable name="Y(43,2)" index="3445" value="1"/>
  <variable name="Y(81,8)" index="6567" value="1"/>
  <variable name="Y(103,22)" index="8385" value="1"/>
  <variable name="Y(112,33)" index="9134" value="1"/>
  <variable name="Y(122,2)" index="9923" value="1"/>
  <variable name="Y(140,21)" index="11418" value="1"/>
  <variable name="Y(140,25)" index="11422" value="-5.000000413701855e-10"/>
  <variable name="Y(157,38)" index="12829" value="1"/>
  <variable name="Y(168,5)" index="13698" value="1.0000000002"/>
  <variable name="Y(168,9)" index="13702" value="-2.000000165480742e-10"/>
  <variable name="Y(183,24)" index="14947" value="1"/>
  <variable name="Y(239,40)" index="19555" value="1"/>
  <variable name="Y(241,1)" index="19680" value="1"/>
  <variable name="Y(265,26)" index="21673" value="1"/>
  <variable name="Y(325,9)" index="26576" value="1"/>
  <variable name="Y(346,10)" index="28299" value="1"/>
  <variable name="Y(351,32)" index="28731" value="1"/>
  <variable name="Y(383,24)" index="31347" value="-8.3332923572079506e-11"/>
  <variable name="Y(411,12)" index="33631" value="1"/>
  <variable name="Y(446,6)" index="36495" value="1"/>
  <variable name="Y(484,4)" index="39609" value="1"/>
  <variable name="Y(487,8)" index="39859" value="1"/>
  <variable name="Y(531,11)" index="43470" value="1"/>
  <variable name="Y(547,28)" index="44799" value="1"/>
  <variable name="Y(568,8)" index="46501" value="1"/>
  <variable name="Y(576,17)" index="47166" value="1"/>
  <variable name="Y(656,16)" index="53725" value="1"/>
  <variable name="Y(702,23)" index="57504" value="1"/>
  <variable name="Y(707,29)" index="57920" value="1"/>
  <variable name="Y(733,13)" index="60036" value="1"/>
  <variable name="Y(794,35)" index="65060" value="1"/>
  <variable name="Y(829,30)" index="67925" value="1"/>
  <variable name="Y(835,36)" index="68423" value="1"/>
  <variable name="Y(904,25)" index="74070" value="1"/>
  <variable name="Y(906,27)" index="74236" value="1"/>
  <variable name="Y(945,25)" index="77432" value="1"/>
  <variable name="Y(950,31)" index="77848" value="1"/>
  <variable name="Y(960,41)" index="78678" value="1"/>
  <variable name="Y(1010,10)" index="82747" value="1"/>
  <variable name="Y(1013,29)" index="83012" value="1"/>
  <variable name="Y(1049,9)" index="85944" value="1.0000000002"/>
  <variable name="Y(1058,18)" index="86691" value="1"/>
  <variable name="Y(1094,14)" index="89639" value="1"/>
  <variable name="Y(1100,20)" index="90137" value="1"/>
  <variable name="Y(1209,8)" index="99063" value="-2.000000165480742e-10"/>
  <variable name="Y(1221,21)" index="100060" value="-1.2500001034254637e-10"/>
  <variable name="Y(1221,29)" index="100068" value="1.000000000125"/>
  <variable name="Y(1243,3)" index="101846" value="1"/>
  <variable name="Y(1269,29)" index="104004" value="1"/>
  <variable name="Y(1322,33)" index="108354" value="1"/>
  <variable name="Y(1358,34)" index="111307" value="1"/>
  <variable name="Y(1375,15)" index="112682" value="1"/>
  <variable name="Y(1421,21)" index="116460" value="1.2500001034254637e-10"/>
  <variable name="Y(1434,34)" index="117539" value="1"/>
  <variable name="Y(1436,36)" index="117705" value="1"/>
  <variable name="Y(1476,37)" index="120986" value="1"/>
  <variable name="Y(1478,39)" index="121152" value="1"/>
  <variable name="Y(1542,22)" index="126383" value="1"/>
  <variable name="Y(1554,39)" index="127384" value="1"/>
  <variable name="Y(1557,37)" index="127628" value="1"/>
  <variable name="Y(1579,19)" index="129414" value="1"/>
  <variable name="Y(1600,40)" index="131157" value="1"/>
  <variable name="Y(1632,22)" index="133763" value="1"/>
  <variable name="Y(1640,41)" index="134438" value="1"/>
  <variable name="X(1,7,6)" index="134485" value="1"/>
  <variable name="X(1,8,4)" index="136123" value="1"/>
  <variable name="X(1,42,241)" index="138000" value="1"/>
  <variable name="X(2,4,43)" index="139442" value="1"/>
  <variable name="X(2,33,42)" index="141081" value="1"/>
  <variable name="X(2,43,122)" index="142801" value="1"/>
  <variable name="X(3,25,81)" index="144400" value="1"/>
  <variable name="X(3,33,112)" index="146071" value="1"/>
  <variable name="X(3,44,1243)" index="148842" value="1"/>
  <variable name="X(4,2,122)" index="149361" value="1"/>
  <variable name="X(4,33,157)" index="151036" value="1"/>
  <variable name="X(4,45,484)" index="153003" value="1"/>
  <variable name="X(5,8,169)" index="154328" value="-4.9998754168164326e-11"/>
  <variable name="X(5,8,183)" index="154342" value="1.0000000000499987"/>
  <variable name="X(5,9,168)" index="155967" value="1"/>
  <variable name="X(5,46,4)" index="157443" value="1"/>
  <variable name="X(6,22,239)" index="159318" value="1"/>
  <variable name="X(6,47,446)" index="161165" value="1"/>
  <variable name="X(7,1,241)" index="162600" value="1"/>
  <variable name="X(7,8,265)" index="164264" value="1"/>
  <variable name="X(7,48,6)" index="165645" value="1"/>
  <variable name="X(8,1,81)" index="167360" value="1"/>
  <variable name="X(8,5,4)" index="168923" value="1"/>
  <variable name="X(8,7,487)" index="171046" value="1"/>
  <variable name="X(8,9,1049)" index="173248" value="1"/>
  <variable name="X(8,10,1010)" index="174849" value="1"/>
  <variable name="X(8,25,351)" index="175830" value="1"/>
  <variable name="X(8,26,265)" index="177384" value="1"/>
  <variable name="X(8,30,183)" index="178942" value="1.0000000000499987"/>
  <variable name="X(8,30,383)" index="179142" value="-4.9998754168164326e-11"/>
  <variable name="X(8,49,568)" index="180967" value="1"/>
  <variable name="X(9,5,325)" index="182364" value="1"/>
  <variable name="X(9,8,351)" index="184030" value="1"/>
  <variable name="X(9,50,168)" index="185487" value="-2.000000165480742e-10"/>
  <variable name="X(9,50,1049)" index="186368" value="1.0000000002"/>
  <variable name="X(10,8,383)" index="187342" value="-2.000000165480742e-10"/>
  <variable name="X(10,8,1049)" index="188008" value="1.0000000002"/>
  <variable name="X(10,27,346)" index="188945" value="1"/>
  <variable name="X(10,51,1010)" index="191249" value="1"/>
  <variable name="X(11,22,403)" index="192282" value="-1.6578777885501049e-13"/>
  <variable name="X(11,22,410)" index="192289" value="1.6578777885501049e-13"/>
  <variable name="X(11,22,411)" index="192290" value="1"/>
  <variable name="X(11,52,531)" index="194050" value="1"/>
  <variable name="X(12,22,446)" index="195605" value="1"/>
  <variable name="X(12,53,411)" index="197210" value="1"/>
  <variable name="X(13,14,1094)" index="199533" value="1"/>
  <variable name="X(13,28,547)" index="200626" value="1"/>
  <variable name="X(13,29,484)" index="202203" value="1"/>
  <variable name="X(13,54,733)" index="204092" value="1"/>
  <variable name="X(14,13,733)" index="205732" value="1"/>
  <variable name="X(14,22,531)" index="207170" value="1"/>
  <variable name="X(14,55,1094)" index="209373" value="1"/>
  <variable name="X(15,16,576)" index="210495" value="1"/>
  <variable name="X(15,56,1375)" index="212934" value="1"/>
  <variable name="X(16,15,1375)" index="214574" value="1"/>
  <variable name="X(16,17,576)" index="215415" value="1"/>
  <variable name="X(16,18,1058)" index="217537" value="1"/>
  <variable name="X(16,22,702)" index="218821" value="1"/>
  <variable name="X(16,30,906)" index="220665" value="1.0000000020000002"/>
  <variable name="X(16,30,1431)" index="221190" value="-2.000000165480742e-09"/>
  <variable name="X(16,57,656)" index="222055" value="1"/>
  <variable name="X(17,16,656)" index="223695" value="1"/>
  <variable name="X(17,58,576)" index="225255" value="1"/>
  <variable name="X(18,16,702)" index="227021" value="1"/>
  <variable name="X(18,59,1058)" index="229017" value="1"/>
  <variable name="X(19,22,733)" index="230332" value="1"/>
  <variable name="X(19,60,1579)" index="232818" value="1"/>
  <variable name="X(20,22,794)" index="233673" value="1"/>
  <variable name="X(20,61,1100)" index="235619" value="1"/>
  <variable name="X(21,25,835)" index="236994" value="1"/>
  <variable name="X(21,29,829)" index="238628" value="1"/>
  <variable name="X(21,62,140)" index="239579" value="1"/>
  <variable name="X(21,62,1221)" index="240660" value="-1.2500001034254637e-10"/>
  <variable name="X(21,62,1421)" index="240860" value="1.2500001034254637e-10"/>
  <variable name="X(22,6,446)" index="241525" value="1"/>
  <variable name="X(22,11,531)" index="243250" value="1"/>
  <variable name="X(22,12,411)" index="244770" value="1"/>
  <variable name="X(22,14,733)" index="246732" value="1"/>
  <variable name="X(22,16,1375)" index="249014" value="0.99999999960830832"/>
  <variable name="X(22,16,1391)" index="249030" value="-8.3003603990050578e-12"/>
  <variable name="X(22,16,1431)" index="249070" value="3.9999203325548317e-10"/>
  <variable name="X(22,19,1579)" index="250858" value="1"/>
  <variable name="X(22,20,1100)" index="252019" value="1"/>
  <variable name="X(22,23,702)" index="253261" value="1"/>
  <variable name="X(22,24,103)" index="254302" value="1"/>
  <variable name="X(22,25,904)" index="256743" value="1"/>
  <variable name="X(22,29,1269)" index="258748" value="1"/>
  <variable name="X(22,32,1632)" index="260751" value="1"/>
  <variable name="X(22,35,794)" index="261553" value="1"/>
  <variable name="X(22,38,835)" index="263234" value="1"/>
  <variable name="X(22,40,239)" index="264278" value="1"/>
  <variable name="X(22,41,960)" index="266639" value="1"/>
  <variable name="X(22,63,1542)" index="268861" value="1"/>
  <variable name="X(23,22,904)" index="269863" value="1"/>
  <variable name="X(23,64,702)" index="271301" value="1"/>
  <variable name="X(24,22,960)" index="273199" value="1"/>
  <variable name="X(24,30,950)" index="274829" value="1"/>
  <variable name="X(24,65,23)" index="275542" value="8.3332923572079506e-11"/>
  <variable name="X(24,65,183)" index="275702" value="1"/>
  <variable name="X(24,65,383)" index="275902" value="-8.3332923572079506e-11"/>
  <variable name="X(25,3,1243)" index="278402" value="1"/>
  <variable name="X(25,8,81)" index="278880" value="1"/>
  <variable name="X(25,21,140)" index="280579" value="0.99999999949999996"/>
  <variable name="X(25,21,1421)" index="281860" value="5.000000413701855e-10"/>
  <variable name="X(25,22,835)" index="282914" value="1"/>
  <variable name="X(25,26,945)" index="284664" value="1"/>
  <variable name="X(25,29,1013)" index="286372" value="1"/>
  <variable name="X(25,32,351)" index="287350" value="1"/>
  <variable name="X(25,33,484)" index="289123" value="1"/>
  <variable name="X(25,66,904)" index="291183" value="1"/>
  <variable name="X(26,8,1010)" index="292929" value="1"/>
  <variable name="X(26,25,1013)" index="294572" value="1"/>
  <variable name="X(26,67,265)" index="295464" value="1"/>
  <variable name="X(27,10,1049)" index="297888" value="1"/>
  <variable name="X(27,30,1058)" index="299537" value="1"/>
  <variable name="X(27,68,906)" index="301025" value="1"/>
  <variable name="X(28,13,1094)" index="302853" value="1"/>
  <variable name="X(28,29,1100)" index="304499" value="1"/>
  <variable name="X(28,69,547)" index="305586" value="1"/>
  <variable name="X(29,13,1013)" index="307692" value="1"/>
  <variable name="X(29,21,1221)" index="309540" value="1"/>
  <variable name="X(29,22,1100)" index="311059" value="1"/>
  <variable name="X(29,25,484)" index="312083" value="1"/>
  <variable name="X(29,28,707)" index="313946" value="1"/>
  <variable name="X(29,30,829)" index="315708" value="1"/>
  <variable name="X(29,70,1269)" index="317788" value="1"/>
  <variable name="X(30,8,568)" index="318727" value="1.0000000010000001"/>
  <variable name="X(30,8,1209)" index="319368" value="-1.000000082740371e-09"/>
  <variable name="X(30,16,1058)" index="320857" value="1"/>
  <variable name="X(30,24,183)" index="321622" value="1.0000000000833329"/>
  <variable name="X(30,24,383)" index="321822" value="-8.3332923572079506e-11"/>
  <variable name="X(30,27,906)" index="323985" value="1"/>
  <variable name="X(30,29,1221)" index="325940" value="1"/>
  <variable name="X(30,31,950)" index="327309" value="1"/>
  <variable name="X(30,71,829)" index="328828" value="1"/>
  <variable name="X(31,30,1221)" index="330860" value="1"/>
  <variable name="X(31,72,950)" index="332229" value="1"/>
  <variable name="X(32,22,1269)" index="334188" value="1"/>
  <variable name="X(32,25,1243)" index="335802" value="1"/>
  <variable name="X(32,73,351)" index="336550" value="1"/>
  <variable name="X(33,2,1322)" index="339161" value="1"/>
  <variable name="X(33,3,42)" index="339521" value="1"/>
  <variable name="X(33,4,484)" index="341603" value="1"/>
  <variable name="X(33,25,140)" index="342899" value="1"/>
  <variable name="X(33,38,157)" index="344556" value="1"/>
  <variable name="X(33,74,112)" index="346151" value="1"/>
  <variable name="X(34,38,1322)" index="349001" value="1"/>
  <variable name="X(34,39,1358)" index="350677" value="1"/>
  <variable name="X(34,75,1434)" index="352393" value="1"/>
  <variable name="X(35,22,1375)" index="353974" value="0.99999999960830832"/>
  <variable name="X(35,22,1391)" index="353990" value="-3.3202271632060143e-11"/>
  <variable name="X(35,22,1394)" index="353993" value="4.2489394448853827e-10"/>
  <variable name="X(35,76,794)" index="355033" value="1"/>
  <variable name="X(36,37,1436)" index="357315" value="1"/>
  <variable name="X(36,38,1412)" index="358931" value="-2.0982865462647842e-13"/>
  <variable name="X(36,38,1434)" index="358953" value="1.0000000000001399"/>
  <variable name="X(36,77,835)" index="359994" value="1"/>
  <variable name="X(37,36,1476)" index="362275" value="1"/>
  <variable name="X(37,38,1478)" index="363917" value="1"/>
  <variable name="X(37,78,1557)" index="365636" value="1"/>
  <variable name="X(38,22,1542)" index="367261" value="1"/>
  <variable name="X(38,33,1322)" index="368681" value="1"/>
  <variable name="X(38,34,1273)" index="370272" value="-1.5989502491002274e-13"/>
  <variable name="X(38,34,1434)" index="370433" value="1.0000000000001399"/>
  <variable name="X(38,36,835)" index="371474" value="1"/>
  <variable name="X(38,37,1557)" index="373836" value="1"/>
  <variable name="X(38,39,1478)" index="375397" value="1"/>
  <variable name="X(38,79,157)" index="375716" value="1"/>
  <variable name="X(39,34,1554)" index="378753" value="1"/>
  <variable name="X(39,38,1557)" index="380396" value="1"/>
  <variable name="X(39,80,1478)" index="381957" value="1"/>
  <variable name="X(40,22,1579)" index="383698" value="1"/>
  <variable name="X(40,41,1600)" index="385359" value="1"/>
  <variable name="X(40,81,239)" index="385638" value="1"/>
  <variable name="X(41,22,1632)" index="388671" value="1"/>
  <variable name="X(41,40,1640)" index="390319" value="1"/>
  <variable name="X(41,82,960)" index="391279" value="1"/>
  <variable name="C(4,8)" index="391975" value="1"/>
  <variable name="C(4,5)" index="391976" value="2"/>
  <variable name="C(6,7)" index="391983" value="1"/>
  <variable name="C(42,33)" index="392142" value="1"/>
  <variable name="C(81,25)" index="392320" value="1"/>
  <variable name="C(81,8)" index="392321" value="2"/>
  <variable name="C(112,33)" index="392439" value="1"/>
  <variable name="C(122,2)" index="392477" value="1"/>
  <variable name="C(140,25)" index="392565" value="1"/>
  <variable name="C(140,21)" index="392566" value="2.0000000020000002"/>
  <variable name="C(157,33)" index="392638" value="1"/>
  <variable name="C(157,38)" index="392639" value="2"/>
  <variable name="C(168,9)" index="392682" value="-2.000000165480742e-10"/>
  <variable name="C(169,8)" index="392684" value="-4.9998754168164326e-11"/>
  <variable name="C(183,8)" index="392749" value="1.0000000000499987"/>
  <variable name="C(183,30)" index="392750" value="2.0000000000999973"/>
  <variable name="C(183,24)" index="392751" value="3.0000000001833302"/>
  <variable name="C(239,22)" index="392977" value="1"/>
  <variable name="C(239,40)" index="392978" value="2"/>
  <variable name="C(241,1)" index="392983" value="1"/>
  <variable name="C(265,8)" index="393084" value="1"/>
  <variable name="C(265,26)" index="393085" value="1.9999999999999998"/>
  <variable name="C(351,8)" index="393421" value="1"/>
  <variable name="C(351,25)" index="393422" value="2"/>
  <variable name="C(351,32)" index="393423" value="3"/>
  <variable name="C(383,8)" index="393568" value="-2.000000165480742e-10"/>
  <variable name="C(383,30)" index="393569" value="-2.4999877071623854e-10"/>
  <variable name="C(383,24)" index="393570" value="-3.3333169428831803e-10"/>
  <variable name="C(403,22)" index="393658" value="-1.6578777885501049e-13"/>
  <variable name="C(403,25)" index="393659" value="-1.6578777885501049e-13"/>
  <variable name="C(403,3)" index="393660" value="-1.6578777885501049e-13"/>
  <variable name="C(410,22)" index="393689" value="1.6578777885501049e-13"/>
  <variable name="C(411,22)" index="393694" value="1"/>
  <variable name="C(411,12)" index="393695" value="2"/>
  <variable name="C(446,22)" index="393824" value="1"/>
  <variable name="C(446,6)" index="393825" value="2"/>
  <variable name="C(484,29)" index="393966" value="1"/>
  <variable name="C(484,25)" index="393967" value="2"/>
  <variable name="C(484,33)" index="393968" value="3"/>
  <variable name="C(484,4)" index="393969" value="4"/>
  <variable name="C(531,22)" index="394162" value="1"/>
  <variable name="C(531,11)" index="394163" value="2"/>
  <variable name="C(547,28)" index="394216" value="1"/>
  <variable name="C(568,8)" index="394303" value="1.0000000010000001"/>
  <variable name="C(576,16)" index="394334" value="1"/>
  <variable name="C(576,17)" index="394335" value="2"/>
  <variable name="C(656,16)" index="394642" value="1"/>
  <variable name="C(702,16)" index="394836" value="1"/>
  <variable name="C(702,22)" index="394837" value="2"/>
  <variable name="C(702,23)" index="394838" value="3"/>
  <variable name="C(733,22)" index="394970" value="1"/>
  <variable name="C(733,14)" index="394971" value="2"/>
  <variable name="C(733,13)" index="394972" value="3"/>
  <variable name="C(794,22)" index="395198" value="1"/>
  <variable name="C(794,35)" index="395199" value="2"/>
  <variable name="C(829,29)" index="395327" value="1"/>
  <variable name="C(829,30)" index="395328" value="2"/>
  <variable name="C(835,25)" index="395349" value="1"/>
  <variable name="C(835,22)" index="395350" value="2"/>
  <variable name="C(835,38)" index="395351" value="3"/>
  <variable name="C(835,36)" index="395352" value="4"/>
  <variable name="C(904,22)" index="395578" value="1"/>
  <variable name="C(904,25)" index="395579" value="2"/>
  <variable name="C(906,30)" index="395587" value="1.0000000020000002"/>
  <variable name="C(906,27)" index="395588" value="2.0000000020000002"/>
  <variable name="C(950,30)" index="395743" value="1"/>
  <variable name="C(950,31)" index="395744" value="2"/>
  <variable name="C(960,24)" index="395777" value="2"/>
  <variable name="C(960,22)" index="395778" value="3"/>
  <variable name="C(960,41)" index="395779" value="4"/>
  <variable name="C(1010,8)" index="395931" value="1"/>
  <variable name="C(1010,10)" index="395932" value="2"/>
  <variable name="C(1013,25)" index="395942" value="1"/>
  <variable name="C(1013,29)" index="395943" value="2"/>
  <variable name="C(1049,10)" index="396090" value="1"/>
  <variable name="C(1049,8)" index="396091" value="2.0000000002"/>
  <variable name="C(1049,9)" index="396092" value="3.0000000002"/>
  <variable name="C(1058,30)" index="396126" value="1"/>
  <variable name="C(1058,16)" index="396127" value="2"/>
  <variable name="C(1058,18)" index="396128" value="3"/>
  <variable name="C(1094,13)" index="396287" value="1"/>
  <variable name="C(1094,14)" index="396288" value="1.9999999999999991"/>
  <variable name="C(1100,29)" index="396313" value="1"/>
  <variable name="C(1100,22)" index="396314" value="2"/>
  <variable name="C(1100,20)" index="396315" value="3"/>
  <variable name="C(1209,8)" index="396701" value="-1.000000082740371e-09"/>
  <variable name="C(1221,30)" index="396752" value="1"/>
  <variable name="C(1221,29)" index="396753" value="2"/>
  <variable name="C(1243,25)" index="396850" value="1"/>
  <variable name="C(1243,3)" index="396851" value="2"/>
  <variable name="C(1269,22)" index="396938" value="1"/>
  <variable name="C(1269,29)" index="396939" value="2"/>
  <variable name="C(1322,38)" index="397132" value="1"/>
  <variable name="C(1322,33)" index="397133" value="2"/>
  <variable name="C(1375,22)" index="397360" value="0.99999999960830832"/>
  <variable name="C(1375,16)" index="397361" value="1.9999999992166166"/>
  <variable name="C(1375,15)" index="397362" value="2.9999999992166169"/>
  <variable name="C(1391,22)" index="397416" value="-3.3202271632060143e-11"/>
  <variable name="C(1391,16)" index="397417" value="-8.3003603990050578e-12"/>
  <variable name="C(1391,30)" index="397418" value="-8.3003603990050578e-12"/>
  <variable name="C(1412,38)" index="397508" value="-2.0982865462647842e-13"/>
  <variable name="C(1412,22)" index="397509" value="-2.7976920815018712e-13"/>
  <variable name="C(1421,21)" index="397551" value="5.000000413701855e-10"/>
  <variable name="C(1431,22)" index="397594" value="1.6000081322252588e-09"/>
  <variable name="C(1431,16)" index="397595" value="2.000000165480742e-09"/>
  <variable name="C(1434,36)" index="397605" value="2.0000000000002798"/>
  <variable name="C(1434,38)" index="397606" value="3.0000000000004197"/>
  <variable name="C(1434,34)" index="397607" value="4.0000000000005596"/>
  <variable name="C(1478,38)" index="397792" value="1"/>
  <variable name="C(1478,39)" index="397793" value="2"/>
  <variable name="C(1542,22)" index="398041" value="1"/>
  <variable name="C(1557,38)" index="398102" value="1"/>
  <variable name="C(1557,37)" index="398103" value="2"/>
  <variable name="C(1579,22)" index="398189" value="1"/>
  <variable name="C(1579,19)" index="398190" value="2"/>
  <variable name="C(1632,22)" index="398386" value="1"/>
 </variables>
</CPLEXSolution>
